200
[21,23,24,28,29,37,38,42,43,45,48,49,51,53,55,56,57,59,61,64,65,68,72,73,74,75,79,80,81,82,83,86,87,88,89,92,95,97,98,100,102,106,107,108,109,110,111,113,114,117,120,121,122,123,124,125,128,133,134,135,136,138,140]
[1,1,2,1,1,1,4,1,2,1,2,2,1,1,2,1,1,1,3,1,3,2,1,3,2,2,3,2,1,1,1,2,1,1,2,2,1,3,2,3,1,1,2,2,3,1,2,1,1,1,2,2,1,1,1,2,1,1,1,1,1,2,1]
